
List of user-set options:

                                    Name   Value                used
                linear_scaling_on_demand = no                    yes
                           linear_solver = ma86                  yes
                   linear_system_scaling = mc19                  yes
                                max_iter = 500                   yes
                                 mu_init = 1e-06                 yes
                             output_file = ./tmp/ipopt_output_tmp.output  yes
                      print_user_options = yes                   yes
        required_infeasibility_reduction = 1                      no
                   warm_start_bound_push = 1e-20                 yes
                   warm_start_init_point = yes                   yes
              warm_start_mult_bound_push = 1e-20                 yes

******************************************************************************
This program contains Ipopt, a library for large-scale nonlinear optimization.
 Ipopt is released as open source code under the Eclipse Public License (EPL).
         For more information visit http://projects.coin-or.org/Ipopt
******************************************************************************

This is Ipopt version 3.12.10, running with linear solver ma86.

Number of nonzeros in equality constraint Jacobian...:   123267
Number of nonzeros in inequality constraint Jacobian.:      213
Number of nonzeros in Lagrangian Hessian.............:    48842

Total number of variables............................:    31501
                     variables with only lower bounds:    12832
                variables with lower and upper bounds:    15123
                     variables with only upper bounds:        0
Total number of equality constraints.................:    31402
Total number of inequality constraints...............:       25
        inequality constraints with only lower bounds:        4
   inequality constraints with lower and upper bounds:        0
        inequality constraints with only upper bounds:       21

iter    objective    inf_pr   inf_du lg(mu)  ||d||  lg(rg) alpha_du alpha_pr  ls
   0  1.4039217e+01 5.72e-04 1.81e+05  -6.0 0.00e+00    -  0.00e+00 0.00e+00   0
   1  1.3991406e+01 1.31e+00 1.56e+05  -6.0 1.59e+03    -  7.47e-02 2.01e-01h  1
   2  1.3982127e+01 1.66e+01 1.45e+05  -6.0 1.89e+04    -  5.09e-03 5.85e-02f  1
Error in an AMPL evaluation. Run with "halt_on_ampl_error yes" to see details.
Warning: Cutting back alpha due to evaluation error
   3  1.3970710e+01 1.96e+01 1.44e+05  -6.0 3.51e+04    -  4.83e-03 1.40e-02h  2
   4  1.3969772e+01 1.80e+01 1.32e+05  -6.0 4.86e+00  -4.0 1.40e-01 8.31e-02h  1
Error in an AMPL evaluation. Run with "halt_on_ampl_error yes" to see details.
Warning: Cutting back alpha due to evaluation error
   5  1.3958717e+01 1.92e+01 1.30e+05  -6.0 2.21e+04    -  4.00e-04 1.56e-02h  2
   6  1.3958619e+01 1.90e+01 1.29e+05  -6.0 5.87e+00  -4.5 2.39e-02 9.49e-03h  1
   7  1.3957504e+01 1.72e+01 1.17e+05  -6.0 6.26e+01  -5.0 3.55e-01 9.53e-02f  1
   8  1.3937989e+01 1.68e+01 1.13e+05  -6.0 1.51e+04    -  4.09e-02 2.20e-02h  1
   9  1.3927856e+01 2.27e+00 2.70e+04  -6.0 3.99e+01  -5.4 4.11e-01 8.65e-01h  1
iter    objective    inf_pr   inf_du lg(mu)  ||d||  lg(rg) alpha_du alpha_pr  ls
  10  1.3923467e+01 2.09e+00 2.49e+04  -6.0 1.13e+02  -5.9 1.86e-01 7.97e-02h  1
  11  1.3898652e+01 1.71e+00 2.09e+04  -6.0 2.58e+02  -6.4 3.10e-01 1.81e-01h  1
  12  1.3837102e+01 8.07e-01 1.24e+04  -6.0 2.78e+02  -6.9 7.11e-01 5.37e-01h  1
  13  1.3820048e+01 6.12e-01 1.05e+05  -6.0 2.78e+02  -7.3 9.75e-01 2.74e-01h  1
  14  1.3781976e+01 6.52e+01 5.12e+04  -6.0 5.32e+03  -7.8 2.12e-01 3.17e-01h  1
  15  1.3753982e+01 2.73e+01 8.57e+04  -6.0 8.85e+02  -8.3 1.00e+00 7.31e-01h  1
  16  1.3745925e+01 2.63e+01 3.39e+05  -6.0 2.90e+03    -  3.39e-01 5.99e-02h  1
  17  1.3685829e+01 2.16e+01 2.61e+05  -6.0 1.18e+03    -  1.00e+00 6.98e-01h  1
  18  1.3637021e+01 1.54e+01 9.77e+04  -6.0 9.76e+02  -7.9 4.81e-01 5.01e-01h  1
  19  1.3634932e+01 1.50e+01 8.10e+05  -6.0 9.58e+02  -8.3 2.22e-01 2.16e-02h  1
iter    objective    inf_pr   inf_du lg(mu)  ||d||  lg(rg) alpha_du alpha_pr  ls
  20  1.3613858e+01 1.26e+01 2.57e+04  -6.0 9.40e+02  -8.8 1.46e-02 2.19e-01h  1
  21  1.3594760e+01 1.08e+01 2.41e+05  -6.0 1.52e+03  -9.3 1.46e-01 1.86e-01h  1
  22  1.3590164e+01 1.04e+01 2.16e+06  -6.0 1.51e+03    -  2.46e-01 3.96e-02h  1
  23  1.3588727e+01 1.84e+01 2.63e+06  -6.0 2.13e+04    -  5.52e-02 4.10e-02h  1
  24  1.3580201e+01 1.72e+01 1.59e+06  -6.0 2.33e+03    -  1.63e-02 6.93e-02h  1
  25r 1.3580201e+01 1.72e+01 1.00e+03   1.2 0.00e+00  -8.0 0.00e+00 3.57e-08R  2
  26r 1.3581683e+01 1.72e+01 3.68e+03   1.2 4.10e+05    -  2.82e-07 2.56e-07f  1
  27  1.3581664e+01 1.71e+01 1.30e+03  -6.0 4.65e+02    -  5.53e-03 4.72e-03h  1
  28  1.3581382e+01 1.52e+01 2.10e+05  -6.0 1.45e+01    -  4.65e-03 1.15e-01h  1
  29  1.3581352e+01 1.45e+01 2.00e+05  -6.0 1.32e+01    -  5.59e-02 4.49e-02h  1
iter    objective    inf_pr   inf_du lg(mu)  ||d||  lg(rg) alpha_du alpha_pr  ls
  30  1.3581269e+01 1.08e+01 1.50e+05  -6.0 1.33e+01    -  2.24e-02 2.53e-01h  1
  31  1.3581227e+01 1.02e+01 1.41e+05  -6.0 1.03e+01    -  1.87e-02 5.99e-02h  1
  32  1.3581096e+01 9.03e+00 1.58e+05  -6.0 9.81e+00    -  4.79e-03 1.12e-01h  1
  33  1.3581027e+01 8.10e+00 1.34e+05  -6.0 8.70e+00    -  3.14e-01 1.03e-01h  1
  34  1.3580705e+01 5.85e+00 5.67e+05  -6.0 7.38e+00    -  4.37e-02 2.78e-01h  1
  35  1.3580692e+01 5.77e+00 5.59e+05  -6.0 5.53e+00    -  6.42e-01 1.29e-02h  1
  36  1.3580263e+01 4.72e+00 4.08e+05  -6.0 6.42e+00    -  3.71e-01 1.83e-01h  1
  37  1.3579218e+01 4.13e+00 2.91e+05  -6.0 1.02e+01    -  5.69e-01 1.26e-01h  1
  38  1.3578728e+01 3.96e+00 2.72e+05  -6.0 2.14e+01    -  1.83e-01 4.11e-02h  1
  39  1.3578224e+01 3.19e+00 1.94e+05  -6.0 5.95e+00    -  1.70e-01 1.95e-01h  1
iter    objective    inf_pr   inf_du lg(mu)  ||d||  lg(rg) alpha_du alpha_pr  ls
  40  1.3577898e+01 2.82e+00 1.67e+05  -6.0 6.79e+00    -  6.03e-01 1.13e-01h  1
  41  1.3577190e+01 2.62e+00 1.51e+05  -6.0 4.22e+01    -  6.17e-01 7.24e-02h  1
  42  1.3576272e+01 2.27e+00 1.39e+05  -6.0 3.07e+01    -  1.32e-02 1.34e-01h  1
  43  1.3575399e+01 2.00e+00 1.27e+05  -6.0 2.91e+01    -  3.27e-01 1.17e-01h  1
  44  1.3573991e+01 1.71e+00 9.93e+04  -6.0 4.09e+01    -  1.05e-01 1.44e-01h  1
  45  1.3569942e+01 1.04e+00 1.55e+05  -6.0 4.35e+01    -  1.78e-01 3.94e-01h  1
  46  1.3567807e+01 8.75e-01 3.34e+05  -6.0 4.68e+01    -  4.32e-01 1.59e-01h  1
  47  1.3566343e+01 8.11e-01 4.48e+05  -6.0 6.52e+01    -  1.34e-01 7.31e-02h  1
  48  1.3561449e+01 6.21e-01 1.16e+06  -6.0 7.98e+01    -  3.82e-01 2.37e-01f  1
  49  1.3560617e+01 6.07e-01 1.13e+06  -6.0 1.15e+02    -  1.75e-01 2.26e-02h  1
iter    objective    inf_pr   inf_du lg(mu)  ||d||  lg(rg) alpha_du alpha_pr  ls
  50  1.3557221e+01 4.75e-01 2.83e+06  -6.0 1.35e+02    -  3.56e-01 2.31e-01h  1
  51  1.3553485e+01 3.84e-01 5.08e+06  -6.0 1.65e+02    -  1.05e-01 2.32e-01h  1
  52  1.3551863e+01 3.52e-01 5.06e+06  -6.0 1.76e+02    -  1.61e-01 9.66e-02h  1
  53  1.3546985e+01 4.16e-01 7.74e+06  -6.0 1.97e+02    -  2.95e-01 2.77e-01h  1
  54  1.3542258e+01 3.74e-01 9.86e+06  -6.0 2.93e+02    -  5.89e-01 2.72e-01h  1
  55  1.3529257e+01 4.79e+00 2.68e+07  -6.0 9.37e+02    -  1.55e-01 4.83e-01h  1
  56  1.3525719e+01 4.49e+00 2.64e+07  -6.0 1.02e+03  -6.6 1.17e-02 6.16e-02h  1
  57  1.3518724e+01 5.52e+00 2.86e+07  -6.0 2.07e+03    -  4.49e-01 1.32e-01h  1
  58  1.3514221e+01 6.42e+00 2.73e+07  -6.0 5.17e+03    -  3.98e-02 4.48e-02h  1
  59  1.3509671e+01 7.29e+00 2.66e+07  -6.0 7.05e+03    -  5.01e-02 3.21e-02h  1
iter    objective    inf_pr   inf_du lg(mu)  ||d||  lg(rg) alpha_du alpha_pr  ls
  60  1.3491291e+01 2.28e+01 3.04e+07  -6.0 8.55e+03    -  4.53e-02 1.03e-01h  1
  61  1.3489983e+01 2.27e+01 3.03e+07  -6.0 6.01e+03    -  1.95e-01 7.75e-03h  1
  62  1.3485039e+01 2.28e+01 3.22e+07  -6.0 8.33e+03    -  8.15e-02 2.22e-02h  1
  63  1.3478536e+01 2.03e+01 4.63e+07  -6.0 9.83e+02    -  7.46e-02 1.17e-01h  1
  64  1.3475143e+01 1.93e+01 5.50e+07  -6.0 8.46e+02    -  2.40e-02 5.20e-02h  1
  65  1.3473634e+01 1.89e+01 5.91e+07  -6.0 1.52e+03    -  7.99e-02 2.00e-02h  1
  66  1.3473471e+01 1.89e+01 5.94e+07  -6.0 7.16e+03    -  2.28e-02 1.75e-03h  1
  67  1.3471763e+01 1.85e+01 7.74e+07  -6.0 4.33e+03    -  3.00e-03 1.91e-02h  1
  68  1.3459510e+01 1.58e+01 6.99e+07  -6.0 8.57e+02    -  7.90e-01 1.68e-01h  1
  69  1.3453195e+01 1.46e+01 6.53e+07  -6.0 8.29e+02    -  3.71e-01 8.17e-02h  1
iter    objective    inf_pr   inf_du lg(mu)  ||d||  lg(rg) alpha_du alpha_pr  ls
  70  1.3449633e+01 1.40e+01 6.25e+07  -6.0 8.24e+02    -  4.53e-01 4.43e-02h  1
  71  1.3406176e+01 1.27e+01 5.23e+07  -6.0 1.06e+03    -  8.07e-01 5.61e-01h  1
  72r 1.3406176e+01 1.27e+01 1.00e+03   1.0 0.00e+00    -  0.00e+00 4.28e-07R  5
  73r 1.3408883e+01 1.27e+01 2.72e+03   1.0 5.92e+06    -  2.44e-07 3.21e-07f  1
  74  1.3408317e+01 1.25e+01 2.73e+04  -6.0 1.03e+03    -  8.40e-04 1.77e-02h  1
  75  1.3408355e+01 1.25e+01 1.03e+05  -6.0 2.31e+02    -  5.22e-04 1.53e-03h  1
  76  1.3408216e+01 1.23e+01 1.13e+05  -6.0 1.94e+02    -  1.92e-02 1.37e-02h  1
  77  1.3408197e+01 1.22e+01 1.21e+05  -6.0 2.09e+01    -  1.62e-02 6.59e-03h  1
  78  1.3408153e+01 1.20e+01 1.19e+05  -6.0 1.12e+01    -  3.06e-02 1.94e-02h  1
  79  1.3408134e+01 1.18e+01 1.17e+05  -6.0 1.08e+01    -  1.13e-01 1.68e-02h  1
iter    objective    inf_pr   inf_du lg(mu)  ||d||  lg(rg) alpha_du alpha_pr  ls
  80  1.3408093e+01 1.12e+01 1.12e+05  -6.0 1.08e+01    -  2.56e-02 4.68e-02h  1
  81  1.3408065e+01 1.11e+01 1.10e+05  -6.0 1.09e+01    -  1.26e-01 1.51e-02h  1
  82  1.3408092e+01 1.05e+01 1.04e+05  -6.0 1.06e+01    -  3.61e-02 5.46e-02h  1
  83  1.3408095e+01 9.78e+00 9.70e+04  -6.0 1.04e+01    -  4.75e-01 6.59e-02h  1
  84  1.3408006e+01 8.89e+00 8.82e+04  -6.0 1.08e+01    -  1.08e-01 9.05e-02h  1
  85  1.3408014e+01 7.49e+00 7.43e+04  -6.0 9.95e+00    -  3.10e-01 1.57e-01h  1
  86  1.3407983e+01 7.18e+00 7.12e+04  -6.0 8.74e+00    -  3.39e-01 4.18e-02h  1
  87  1.3407443e+01 4.46e+00 4.49e+05  -6.0 8.57e+00    -  1.08e-01 3.79e-01h  1
  88  1.3406353e+01 8.47e-01 6.83e+05  -6.0 5.31e+00    -  6.59e-01 8.10e-01h  1
  89  1.3406056e+01 7.98e-01 6.47e+05  -6.0 8.96e+00    -  4.74e-01 5.75e-02h  1
iter    objective    inf_pr   inf_du lg(mu)  ||d||  lg(rg) alpha_du alpha_pr  ls
  90  1.3404807e+01 6.86e-01 5.98e+05  -6.0 1.53e+01    -  2.86e-01 1.40e-01h  1
  91  1.3403777e+01 6.14e-01 6.46e+05  -6.0 1.86e+01    -  9.22e-02 1.05e-01h  1
  92  1.3401325e+01 4.86e-01 1.00e+06  -6.0 1.28e+01    -  1.15e-01 2.09e-01h  1
  93  1.3396993e+01 2.92e-01 4.26e+07  -6.0 1.55e+01    -  6.48e-02 3.99e-01h  1
  94  1.3395542e+01 2.48e-01 3.45e+07  -6.0 1.74e+01    -  3.13e-01 1.50e-01h  1
  95  1.3390131e+01 8.92e-02 1.62e+07  -6.0 2.41e+01    -  6.38e-01 6.49e-01h  1
  96  1.3383351e+01 1.37e-01 1.33e+07  -6.0 6.61e+01    -  1.32e-01 3.11e-01h  1
  97  1.3380420e+01 1.26e-01 1.22e+07  -6.0 8.03e+01    -  2.00e-01 1.15e-01h  1
  98  1.3369282e+01 1.63e-01 1.87e+07  -6.0 9.83e+01    -  4.84e-01 4.05e-01f  1
  99  1.3368069e+01 1.59e-01 1.83e+07  -6.0 1.81e+02    -  2.77e-01 2.80e-02h  1
iter    objective    inf_pr   inf_du lg(mu)  ||d||  lg(rg) alpha_du alpha_pr  ls
 100  1.3351704e+01 2.28e+00 9.89e+07  -6.0 2.35e+02    -  6.16e-01 3.16e-01f  1
 101  1.3336744e+01 3.53e+00 1.04e+08  -6.0 3.21e+02    -  2.41e-01 2.27e-01h  1
 102  1.3336054e+01 3.72e+00 1.03e+08  -6.0 6.30e+02    -  5.50e-02 7.81e-03h  1
 103  1.3332138e+01 3.35e+00 9.20e+07  -6.0 1.86e+02    -  2.94e-01 1.00e-01h  1
 104  1.3329282e+01 3.08e+00 8.44e+07  -6.0 2.42e+02    -  2.08e-01 8.17e-02h  1
 105  1.3312591e+01 1.56e+00 1.53e+08  -6.0 3.11e+02    -  1.57e-02 5.48e-01h  1
 106  1.3312243e+01 1.47e+00 1.46e+08  -6.0 2.20e+02    -  2.92e-02 5.85e-02h  1
 107  1.3310583e+01 1.08e+00 1.49e+08  -6.0 2.17e+02    -  1.08e-01 2.74e-01h  1
 108  1.3310481e+01 9.74e-01 1.36e+08  -6.0 5.56e+01  -6.2 5.41e-02 9.76e-02h  1
 109  1.3308665e+01 6.88e-01 1.09e+08  -6.0 2.73e+02  -6.7 1.42e-01 2.97e-01f  1
iter    objective    inf_pr   inf_du lg(mu)  ||d||  lg(rg) alpha_du alpha_pr  ls
 110  1.3307174e+01 6.41e-01 1.02e+08  -6.0 9.87e+02    -  1.95e-02 6.80e-02h  1
 111  1.3298458e+01 2.90e+00 6.97e+07  -6.0 4.06e+02    -  6.71e-01 9.82e-01h  1
 112  1.3296114e+01 2.90e+00 6.17e+07  -6.0 1.17e+03    -  6.09e-01 1.16e-01h  1
 113  1.3293220e+01 3.08e+00 5.39e+07  -6.0 1.40e+03    -  3.13e-01 1.25e-01h  1
 114  1.3288280e+01 5.32e+00 3.93e+07  -6.0 1.53e+03  -7.2 2.28e-02 2.73e-01h  1
 115  1.3288250e+01 2.13e-01 1.53e+05  -6.0 1.33e+02  -7.6 7.40e-01 1.00e+00h  1
 116  1.3286978e+01 1.10e-01 6.62e+04  -6.0 6.77e+01  -7.2 5.98e-01 5.68e-01h  1
 117  1.3285228e+01 2.59e-01 3.50e+04  -6.0 2.11e+02  -7.7 5.28e-01 4.74e-01h  1
 118  1.3285187e+01 7.63e-01 7.36e+04  -6.0 6.86e+03    -  3.34e-01 1.28e-02h  1
 119  1.3284083e+01 6.80e-01 2.18e+04  -6.0 4.36e+02    -  1.06e-01 3.71e-01h  1
iter    objective    inf_pr   inf_du lg(mu)  ||d||  lg(rg) alpha_du alpha_pr  ls
 120  1.3283839e+01 6.39e-01 5.29e+04  -6.0 1.42e+02    -  1.42e-01 6.44e-02h  1
 121  1.3283865e+01 6.32e-01 7.91e+06  -6.0 1.56e+03    -  4.46e-04 1.36e-02h  2
 122  1.3283364e+01 8.46e-01 4.41e+06  -6.0 2.56e+02    -  6.98e-02 4.43e-01h  1
 123  1.3283434e+01 2.98e-02 6.44e+02  -6.0 3.69e+01    -  4.65e-01 1.00e+00h  1
 124  1.3282692e+01 1.42e-02 2.97e+02  -6.0 1.95e+01  -8.2 5.46e-01 5.39e-01h  1
 125  1.3282550e+01 5.24e-02 1.45e+00  -6.0 5.13e+01  -8.7 1.00e+00 1.00e+00h  1
 126  1.3282619e+01 9.00e-03 7.97e+01  -6.0 5.01e+01  -9.1 4.99e-01 1.00e+00H  1
 127  1.3282619e+01 3.74e-02 6.81e+01  -6.0 2.45e+03    -  9.23e-01 1.02e-02h  4
 128  1.3282619e+01 5.73e-02 4.95e+01  -6.0 1.96e+02    -  1.00e+00 9.46e-02h  4
 129  1.3282621e+01 6.09e-02 3.77e+01  -6.0 9.86e+01    -  1.00e+00 2.50e-01h  3
iter    objective    inf_pr   inf_du lg(mu)  ||d||  lg(rg) alpha_du alpha_pr  ls
 130  1.3282622e+01 1.77e-02 3.14e+01  -6.0 1.11e+02    -  1.00e+00 1.99e-01h  3
 131  1.3282622e+01 2.96e-02 3.31e+01  -6.0 4.64e+02    -  1.00e+00 2.46e-02h  4
 132  1.3282628e+01 1.40e-01 1.80e-01  -6.0 3.90e+01    -  1.00e+00 1.00e+00h  1
 133  1.3282626e+01 5.93e-01 3.64e+01  -6.0 2.42e+04  -9.6 1.05e-01 5.93e-03h  1
 134  1.3282625e+01 8.04e-01 3.91e+00  -6.0 4.44e+02    -  1.00e+00 5.46e-01h  1
 135  1.3282603e+01 7.33e-01 9.47e+01  -6.0 4.11e+02    -  1.15e-02 1.29e-01h  2
 136  1.3282611e+01 3.05e-02 4.96e+01  -6.0 5.04e+01    -  1.00e+00 1.00e+00h  1
 137  1.3282623e+01 2.21e-04 2.23e+00  -6.0 4.32e+00    -  1.00e+00 1.00e+00h  1
 138  1.3282623e+01 2.26e-06 2.83e-03  -6.0 4.43e-01    -  1.00e+00 1.00e+00h  1
 139  1.3282526e+01 7.73e-03 3.76e+03  -9.0 2.76e+01    -  8.15e-01 7.22e-01h  1
iter    objective    inf_pr   inf_du lg(mu)  ||d||  lg(rg) alpha_du alpha_pr  ls
 140  1.3282518e+01 4.97e-03 4.23e+03  -9.0 1.38e+01    -  7.36e-01 4.29e-01h  1
Error in an AMPL evaluation. Run with "halt_on_ampl_error yes" to see details.
Warning: Cutting back alpha due to evaluation error
 141  1.3282516e+01 3.69e-03 3.24e+04  -9.0 2.30e+01 -10.1 9.26e-01 2.73e-01h  2
Error in an AMPL evaluation. Run with "halt_on_ampl_error yes" to see details.
Warning: Cutting back alpha due to evaluation error
 142  1.3282515e+01 8.33e-03 2.05e+04  -9.0 7.09e+01 -10.6 5.69e-01 3.69e-01h  2
Error in an AMPL evaluation. Run with "halt_on_ampl_error yes" to see details.
Warning: Cutting back alpha due to evaluation error
 143  1.3282515e+01 8.77e-02 1.30e+04  -9.0 2.31e+02 -11.0 1.00e+00 3.65e-01h  2
 144  1.3282513e+01 3.67e+00 3.52e+03  -9.0 7.70e+02 -11.5 1.79e-01 7.30e-01h  1
 145  1.3282508e+01 7.57e+01 2.04e+03  -9.0 5.94e+03 -12.0 5.04e-02 4.22e-01h  1
 146  1.3282510e+01 6.85e+01 1.48e+03  -9.0 3.82e+03    -  3.48e-01 2.72e-01h  1
 147  1.3282507e+01 7.87e+01 1.22e+03  -9.0 7.54e+03    -  4.47e-02 1.77e-01h  1
 148  1.3282506e+01 6.44e+01 9.24e+02  -9.0 2.41e+03    -  3.88e-01 2.42e-01h  1
 149  1.3282502e+01 6.01e+01 2.38e+02  -9.0 2.39e+03    -  3.70e-02 7.43e-01h  1
iter    objective    inf_pr   inf_du lg(mu)  ||d||  lg(rg) alpha_du alpha_pr  ls
 150  1.3282500e+01 5.15e+01 1.93e+02  -9.0 2.30e+03    -  1.97e-01 1.91e-01h  1
 151  1.3282500e+01 4.59e+01 1.66e+02  -9.0 2.32e+03    -  2.93e-01 1.40e-01h  1
 152  1.3282496e+01 5.06e+01 3.89e+06  -9.0 2.32e+03    -  7.01e-06 6.51e-01h  1
 153  1.3282493e+01 4.09e+01 2.52e+06  -9.0 1.99e+03    -  1.82e-03 3.51e-01h  1
 154  1.3282489e+01 3.81e+01 1.36e+02  -9.0 1.50e+03    -  1.85e-01 1.00e+00f  1
 155  1.3282486e+01 4.75e+01 1.22e+02  -9.0 8.74e+03    -  1.87e-01 9.97e-02h  1
 156  1.3282480e+01 4.91e+01 1.19e+01  -9.0 1.66e+03    -  7.50e-01 9.50e-01h  1
 157  1.3282474e+01 4.18e+01 4.59e+03  -9.0 1.42e+03    -  9.07e-03 1.00e+00h  1
 158  1.3282473e+01 4.32e+01 4.57e+03  -9.0 6.16e+04 -12.5 1.90e-02 4.42e-03h  1
 159  1.3282468e+01 2.92e+01 4.56e+02  -9.0 1.13e+03    -  5.63e-02 1.00e+00h  1
iter    objective    inf_pr   inf_du lg(mu)  ||d||  lg(rg) alpha_du alpha_pr  ls
 160  1.3282465e+01 2.05e+01 2.23e+02  -9.0 9.98e+02 -11.1 2.10e-01 5.81e-01h  1
 161  1.3282470e+01 1.74e+01 1.29e+02  -9.0 1.20e+03    -  7.89e-02 1.00e+00H  1
 162  1.3282455e+01 1.41e+01 6.36e+01  -9.0 8.84e+02 -10.7 3.87e-02 7.00e-01h  1
 163  1.3282455e+01 1.40e+01 6.27e+01  -9.0 2.00e+03 -10.3 6.13e-02 2.00e-04h  1
 164  1.3282454e+01 1.40e+01 2.46e+02  -9.0 3.45e+03    -  2.95e-01 7.39e-03h  1
 165  1.3282454e+01 1.39e+01 1.61e+02  -9.0 2.45e+03    -  3.43e-01 1.41e-03h  1
 166  1.3282454e+01 1.39e+01 3.38e+02  -9.0 1.09e+03  -9.9 1.02e-03 2.09e-03h  1
 167r 1.3282454e+01 1.39e+01 1.00e+03   0.8 0.00e+00 -10.3 0.00e+00 5.11e-10R 15
 168r 1.3282458e+01 1.39e+01 1.76e+03   0.8 3.13e+07    -  3.76e-10 2.48e-10f  1
 169r 1.3282459e+01 1.39e+01 3.67e+03   0.8 2.90e+04   2.0 6.16e-09 7.35e-10f  1
iter    objective    inf_pr   inf_du lg(mu)  ||d||  lg(rg) alpha_du alpha_pr  ls
 170  1.3282459e+01 1.39e+01 5.99e+02  -9.0 1.06e+01    -  4.83e-07 2.89e-04h  1
 171  1.3282459e+01 1.39e+01 5.98e+02  -9.0 1.05e+01    -  2.98e-04 1.76e-03h  1
 172  1.3282459e+01 1.39e+01 5.96e+02  -9.0 1.05e+01    -  8.33e-03 2.20e-03h  1
 173  1.3282459e+01 1.37e+01 5.90e+02  -9.0 1.04e+01    -  5.64e-03 1.01e-02h  1
 174  1.3282458e+01 1.32e+01 1.05e+03  -9.0 1.03e+01    -  5.20e-02 3.51e-02h  1
 175  1.3282455e+01 1.18e+01 1.28e+03  -9.0 9.95e+00    -  6.75e-02 1.09e-01h  1
 176  1.3282449e+01 8.69e+00 1.31e+03  -9.0 8.84e+00    -  3.07e-01 2.63e-01h  1
 177  1.3282441e+01 5.02e+00 4.45e+03  -9.0 6.46e+00    -  5.25e-01 4.23e-01h  1
 178  1.3282429e+01 1.07e+00 6.88e+02  -9.0 3.68e+00    -  6.99e-01 7.86e-01h  1
 179  1.3282444e+01 1.28e-01 5.76e+02  -9.0 7.76e-01    -  8.16e-01 8.81e-01h  1
iter    objective    inf_pr   inf_du lg(mu)  ||d||  lg(rg) alpha_du alpha_pr  ls
 180  1.3282446e+01 7.38e-02 1.09e+02  -9.0 2.82e-01    -  9.71e-01 4.22e-01h  1
 181  1.3282448e+01 2.40e-02 3.45e+01  -9.0 1.07e+00    -  9.80e-01 6.74e-01h  1
 182  1.3282446e+01 2.05e-02 2.66e+01  -9.0 4.01e+01    -  1.44e-01 2.31e-01h  1
 183  1.3282434e+01 5.90e-02 2.19e+00  -9.0 5.41e+01    -  9.08e-01 9.18e-01f  1
 184  1.3282419e+01 6.13e-01 2.00e+00  -9.0 1.84e+03    -  8.63e-02 8.43e-02h  1
 185  1.3282375e+01 3.17e+00 1.41e+00  -9.0 1.11e+03    -  2.99e-01 3.08e-01h  1
 186  1.3282331e+01 5.29e-01 4.25e+00  -9.0 9.14e+01    -  7.21e-01 8.33e-01h  1
 187  1.3282338e+01 5.79e-02 1.02e+01  -9.0 7.05e+01    -  1.04e-01 1.00e+00h  1
 188  1.3282338e+01 2.41e-01 5.76e+00  -9.0 2.28e+03    -  4.08e-01 6.25e-02h  5
 189  1.3282338e+01 5.44e-01 5.76e+00  -9.0 2.35e+05    -  7.23e-04 6.87e-04h  5
iter    objective    inf_pr   inf_du lg(mu)  ||d||  lg(rg) alpha_du alpha_pr  ls
 190  1.3282338e+01 5.11e-01 1.84e+00  -9.0 1.11e+02 -10.8 9.91e-01 6.25e-02h  5
 191  1.3282340e+01 2.49e-02 6.26e-02  -9.0 4.08e+02 -11.3 8.14e-01 1.00e+00H  1
 192  1.3282329e+01 7.10e+01 4.27e+00  -9.0 3.30e+03 -11.8 3.33e-02 9.68e-01H  1
 193  1.3282322e+01 1.88e+02 2.86e+00  -9.0 7.88e+03    -  8.68e-01 1.00e+00H  1
 194  1.3282332e+01 9.27e-03 2.49e+00  -9.0 2.00e+02 -11.3 6.62e-01 1.00e+00h  1
 195  1.3282321e+01 6.51e+01 4.38e+00  -9.0 6.29e+03 -11.8 4.75e-01 3.61e-01h  1
 196  1.3282297e+01 7.52e+01 2.01e+04  -9.0 2.28e+03    -  1.28e-03 1.00e+00h  1
 197  1.3282296e+01 7.45e+01 1.99e+04  -9.0 2.37e+03    -  1.85e-02 9.28e-03h  1
 198  1.3282292e+01 6.67e+01 1.75e+04  -9.0 1.94e+03    -  3.16e-03 1.16e-01h  1
 199  1.3282289e+01 6.10e+01 1.58e+04  -9.0 2.01e+03    -  1.59e-01 9.45e-02h  1
iter    objective    inf_pr   inf_du lg(mu)  ||d||  lg(rg) alpha_du alpha_pr  ls
 200  1.3282277e+01 4.71e+01 1.01e+04  -9.0 1.95e+03    -  7.06e-01 3.62e-01h  1
 201  1.3282256e+01 3.98e+01 4.29e+03  -9.0 1.90e+03    -  7.25e-01 5.75e-01h  1
 202  1.3282219e+01 5.58e+01 3.79e+00  -9.0 1.79e+03    -  9.94e-01 1.00e+00h  1
 203  1.3282201e+01 4.13e+01 1.24e+02  -9.0 1.63e+03    -  5.07e-02 4.33e-01h  1
 204  1.3282181e+01 3.39e+01 3.18e+02  -9.0 1.64e+03    -  1.40e-02 4.92e-01h  1
 205  1.3282149e+01 3.68e+01 8.95e+05  -9.0 1.33e+03    -  2.32e-04 1.00e+00f  1
 206  1.3282139e+01 4.15e+01 8.93e+05  -9.0 1.94e+05    -  7.66e-03 2.44e-03h  1
 207  1.3282127e+01 1.02e+01 1.99e+03  -9.0 6.41e+02    -  1.17e-01 1.00e+00h  1
 208  1.3282115e+01 1.58e+01 6.03e+02  -9.0 1.07e+03 -10.5 8.86e-01 6.85e-01h  1
 209  1.3282115e+01 1.57e+01 6.01e+02  -9.0 5.45e+02  -8.3 2.33e-03 3.92e-03h  1
iter    objective    inf_pr   inf_du lg(mu)  ||d||  lg(rg) alpha_du alpha_pr  ls
 210  1.3282115e+01 1.57e+01 5.99e+02  -9.0 4.38e+03    -  1.88e-02 1.07e-04h  1
 211  1.3282115e+01 1.31e+01 5.15e+02  -9.0 6.09e+00  -7.8 1.25e-02 1.66e-01f  1
 212  1.3282112e+01 1.02e+01 4.10e+02  -9.0 2.79e+01  -8.3 1.19e-01 2.25e-01h  1
 213  1.3282112e+01 8.40e+00 3.20e+02  -9.0 1.01e+01  -7.9 3.93e-01 1.74e-01h  1
 214  1.3282112e+01 8.09e+00 3.10e+02  -9.0 2.51e+02    -  2.89e-03 3.79e-02h  1
 215  1.3282112e+01 8.08e+00 3.10e+02  -9.0 8.53e+00  -2.9 1.11e-03 3.06e-04h  1
In iteration 215, 1 Slack too small, adjusting variable bound
 216  1.3282112e+01 8.08e+00 3.09e+02  -9.0 1.77e+00  -3.4 4.69e-03 4.63e-04h  1
 217  1.3282112e+01 8.07e+00 3.31e+02  -9.0 8.08e+00  -3.0 8.11e-01 1.18e-03h  1
 218  1.3282112e+01 7.72e+00 3.17e+02  -9.0 8.07e+00  -3.5 9.68e-02 4.29e-02h  1
 219  1.3282112e+01 7.22e+00 2.97e+02  -9.0 7.72e+00  -3.9 8.53e-02 6.54e-02h  1
iter    objective    inf_pr   inf_du lg(mu)  ||d||  lg(rg) alpha_du alpha_pr  ls
 220  1.3282113e+01 5.29e+00 3.62e+02  -9.0 7.22e+00  -4.4 7.69e-02 2.68e-01h  1
 221  1.3282114e+01 1.14e+00 7.89e+01  -9.0 5.29e+00  -4.9 7.29e-01 7.85e-01h  1
 222  1.3282114e+01 1.13e+00 7.43e+01  -9.0 4.50e+01    -  7.08e-02 2.52e-03h  1
 223  1.3282115e+01 8.27e-01 2.49e+02  -9.0 1.13e+00  -5.4 8.75e-02 2.69e-01h  1
 224  1.3282115e+01 4.12e-01 1.36e+02  -9.0 8.27e-01  -5.9 9.67e-01 5.02e-01h  1
 225  1.3282114e+01 3.16e-01 1.12e+02  -9.0 1.78e+01    -  6.21e-02 2.32e-01h  1
 226  1.3282113e+01 1.94e-01 5.89e+01  -9.0 1.89e+01    -  6.53e-01 3.86e-01h  1
 227  1.3282113e+01 1.67e-01 5.04e+01  -9.0 1.61e+01    -  7.87e-03 1.39e-01h  1
 228  1.3282113e+01 1.67e-01 5.04e+01  -9.0 7.68e+04    -  1.12e-06 9.60e-06h  2
 229  1.3282113e+01 1.67e-01 5.03e+01  -9.0 1.06e+01  -5.4 3.98e-03 1.67e-03h  1
iter    objective    inf_pr   inf_du lg(mu)  ||d||  lg(rg) alpha_du alpha_pr  ls
 230  1.3282113e+01 1.66e-01 5.02e+01  -9.0 2.08e+02    -  1.30e-01 3.55e-03h  1
 231  1.3282113e+01 1.67e-04 4.56e-02  -9.0 2.64e+00  -5.9 8.56e-01 1.00e+00h  1
 232  1.3282113e+01 1.59e-04 7.14e+00  -9.0 3.00e+01    -  1.00e+00 5.01e-02h  1
 233  1.3282113e+01 1.03e-04 1.99e+01  -9.0 1.73e+00    -  8.55e-01 3.64e-01f  1
 234  1.3282113e+01 2.91e-04 1.49e+01  -9.0 1.30e+01    -  1.25e-01 2.27e-01f  1
 235  1.3282113e+01 1.36e-02 8.11e-02  -9.0 2.37e+01    -  1.00e+00 1.00e+00f  1
 236  1.3282113e+01 2.77e-03 2.90e-01  -9.0 1.07e+01    -  8.85e-01 1.00e+00h  1
 237  1.3282113e+01 2.95e-03 3.77e-04  -9.0 1.11e+01    -  1.00e+00 1.00e+00h  1
 238  1.3282113e+01 4.11e-05 6.67e-07  -9.0 1.30e+00    -  1.00e+00 1.00e+00h  1
 239  1.3282113e+01 6.09e-09 1.42e-09  -9.0 1.60e-02    -  1.00e+00 1.00e+00h  1

Number of Iterations....: 239

                                   (scaled)                 (unscaled)
Objective...............:   1.3282112866060714e+01    1.3282112866060714e+01
Dual infeasibility......:   1.4245637444741492e-09    1.4245637444741492e-09
Constraint violation....:   2.9524850969320968e-09    6.0936145018786192e-09
Complementarity.........:   1.0000266425035087e-09    1.0000266425035087e-09
Overall NLP error.......:   2.9524850969320968e-09    6.0936145018786192e-09


Number of objective function evaluations             = 317
Number of objective gradient evaluations             = 239
Number of equality constraint evaluations            = 322
Number of inequality constraint evaluations          = 317
Number of equality constraint Jacobian evaluations   = 243
Number of inequality constraint Jacobian evaluations = 243
Number of Lagrangian Hessian evaluations             = 239
Total CPU secs in IPOPT (w/o function evaluations)   =    187.314
Total CPU secs in NLP function evaluations           =      3.665

EXIT: Optimal Solution Found.
